c File: flat50_3_0.col
c
c SOURCE: Joseph Culberson (joe@cs.ualberta.ca)
c DESCRIPTION: Quasi-random coloring problem
c              generated with flatness = 0
c                             probability = 0.139
c                             known coloring = 3
c                             random seed = 1828
c              Creation Date:  Tue Jun  9 12:18:56 1998
c Maximum degree = 8 Minimum degree = 0
c p edge 50 115
c cnf created by edge2cnf
p cnf 150 545
-1 -2 0
-1 -3 0
-2 -3 0
1 2 3 0
-4 -5 0
-4 -6 0
-5 -6 0
4 5 6 0
-7 -8 0
-7 -9 0
-8 -9 0
7 8 9 0
-10 -11 0
-10 -12 0
-11 -12 0
10 11 12 0
-13 -14 0
-13 -15 0
-14 -15 0
13 14 15 0
-16 -17 0
-16 -18 0
-17 -18 0
16 17 18 0
-19 -20 0
-19 -21 0
-20 -21 0
19 20 21 0
-22 -23 0
-22 -24 0
-23 -24 0
22 23 24 0
-25 -26 0
-25 -27 0
-26 -27 0
25 26 27 0
-28 -29 0
-28 -30 0
-29 -30 0
28 29 30 0
-31 -32 0
-31 -33 0
-32 -33 0
31 32 33 0
-34 -35 0
-34 -36 0
-35 -36 0
34 35 36 0
-37 -38 0
-37 -39 0
-38 -39 0
37 38 39 0
-40 -41 0
-40 -42 0
-41 -42 0
40 41 42 0
-43 -44 0
-43 -45 0
-44 -45 0
43 44 45 0
-46 -47 0
-46 -48 0
-47 -48 0
46 47 48 0
-49 -50 0
-49 -51 0
-50 -51 0
49 50 51 0
-52 -53 0
-52 -54 0
-53 -54 0
52 53 54 0
-55 -56 0
-55 -57 0
-56 -57 0
55 56 57 0
-58 -59 0
-58 -60 0
-59 -60 0
58 59 60 0
-61 -62 0
-61 -63 0
-62 -63 0
61 62 63 0
-64 -65 0
-64 -66 0
-65 -66 0
64 65 66 0
-67 -68 0
-67 -69 0
-68 -69 0
67 68 69 0
-70 -71 0
-70 -72 0
-71 -72 0
70 71 72 0
-73 -74 0
-73 -75 0
-74 -75 0
73 74 75 0
-76 -77 0
-76 -78 0
-77 -78 0
76 77 78 0
-79 -80 0
-79 -81 0
-80 -81 0
79 80 81 0
-82 -83 0
-82 -84 0
-83 -84 0
82 83 84 0
-85 -86 0
-85 -87 0
-86 -87 0
85 86 87 0
-88 -89 0
-88 -90 0
-89 -90 0
88 89 90 0
-91 -92 0
-91 -93 0
-92 -93 0
91 92 93 0
-94 -95 0
-94 -96 0
-95 -96 0
94 95 96 0
-97 -98 0
-97 -99 0
-98 -99 0
97 98 99 0
-100 -101 0
-100 -102 0
-101 -102 0
100 101 102 0
-103 -104 0
-103 -105 0
-104 -105 0
103 104 105 0
-106 -107 0
-106 -108 0
-107 -108 0
106 107 108 0
-109 -110 0
-109 -111 0
-110 -111 0
109 110 111 0
-112 -113 0
-112 -114 0
-113 -114 0
112 113 114 0
-115 -116 0
-115 -117 0
-116 -117 0
115 116 117 0
-118 -119 0
-118 -120 0
-119 -120 0
118 119 120 0
-121 -122 0
-121 -123 0
-122 -123 0
121 122 123 0
-124 -125 0
-124 -126 0
-125 -126 0
124 125 126 0
-127 -128 0
-127 -129 0
-128 -129 0
127 128 129 0
-130 -131 0
-130 -132 0
-131 -132 0
130 131 132 0
-133 -134 0
-133 -135 0
-134 -135 0
133 134 135 0
-136 -137 0
-136 -138 0
-137 -138 0
136 137 138 0
-139 -140 0
-139 -141 0
-140 -141 0
139 140 141 0
-142 -143 0
-142 -144 0
-143 -144 0
142 143 144 0
-145 -146 0
-145 -147 0
-146 -147 0
145 146 147 0
-148 -149 0
-148 -150 0
-149 -150 0
148 149 150 0
-106 -1 0
-107 -2 0
-108 -3 0
-139 -1 0
-140 -2 0
-141 -3 0
-148 -1 0
-149 -2 0
-150 -3 0
-67 -4 0
-68 -5 0
-69 -6 0
-112 -4 0
-113 -5 0
-114 -6 0
-121 -4 0
-122 -5 0
-123 -6 0
-124 -4 0
-125 -5 0
-126 -6 0
-133 -4 0
-134 -5 0
-135 -6 0
-70 -7 0
-71 -8 0
-72 -9 0
-73 -7 0
-74 -8 0
-75 -9 0
-94 -7 0
-95 -8 0
-96 -9 0
-100 -7 0
-101 -8 0
-102 -9 0
-103 -7 0
-104 -8 0
-105 -9 0
-139 -7 0
-140 -8 0
-141 -9 0
-148 -7 0
-149 -8 0
-150 -9 0
-82 -10 0
-83 -11 0
-84 -12 0
-85 -10 0
-86 -11 0
-87 -12 0
-97 -10 0
-98 -11 0
-99 -12 0
-106 -10 0
-107 -11 0
-108 -12 0
-124 -10 0
-125 -11 0
-126 -12 0
-130 -10 0
-131 -11 0
-132 -12 0
-73 -13 0
-74 -14 0
-75 -15 0
-148 -13 0
-149 -14 0
-150 -15 0
-58 -16 0
-59 -17 0
-60 -18 0
-61 -16 0
-62 -17 0
-63 -18 0
-82 -16 0
-83 -17 0
-84 -18 0
-133 -16 0
-134 -17 0
-135 -18 0
-142 -16 0
-143 -17 0
-144 -18 0
-58 -22 0
-59 -23 0
-60 -24 0
-64 -22 0
-65 -23 0
-66 -24 0
-67 -22 0
-68 -23 0
-69 -24 0
-91 -22 0
-92 -23 0
-93 -24 0
-103 -22 0
-104 -23 0
-105 -24 0
-115 -22 0
-116 -23 0
-117 -24 0
-121 -22 0
-122 -23 0
-123 -24 0
-145 -22 0
-146 -23 0
-147 -24 0
-85 -25 0
-86 -26 0
-87 -27 0
-94 -25 0
-95 -26 0
-96 -27 0
-97 -25 0
-98 -26 0
-99 -27 0
-100 -25 0
-101 -26 0
-102 -27 0
-115 -25 0
-116 -26 0
-117 -27 0
-121 -25 0
-122 -26 0
-123 -27 0
-136 -25 0
-137 -26 0
-138 -27 0
-70 -28 0
-71 -29 0
-72 -30 0
-136 -28 0
-137 -29 0
-138 -30 0
-52 -31 0
-53 -32 0
-54 -33 0
-73 -31 0
-74 -32 0
-75 -33 0
-115 -31 0
-116 -32 0
-117 -33 0
-121 -31 0
-122 -32 0
-123 -33 0
-130 -31 0
-131 -32 0
-132 -33 0
-139 -31 0
-140 -32 0
-141 -33 0
-58 -34 0
-59 -35 0
-60 -36 0
-76 -34 0
-77 -35 0
-78 -36 0
-88 -34 0
-89 -35 0
-90 -36 0
-91 -34 0
-92 -35 0
-93 -36 0
-112 -34 0
-113 -35 0
-114 -36 0
-79 -37 0
-80 -38 0
-81 -39 0
-97 -37 0
-98 -38 0
-99 -39 0
-103 -37 0
-104 -38 0
-105 -39 0
-109 -37 0
-110 -38 0
-111 -39 0
-76 -40 0
-77 -41 0
-78 -42 0
-115 -40 0
-116 -41 0
-117 -42 0
-124 -40 0
-125 -41 0
-126 -42 0
-67 -43 0
-68 -44 0
-69 -45 0
-85 -43 0
-86 -44 0
-87 -45 0
-88 -43 0
-89 -44 0
-90 -45 0
-94 -43 0
-95 -44 0
-96 -45 0
-67 -46 0
-68 -47 0
-69 -48 0
-94 -46 0
-95 -47 0
-96 -48 0
-100 -46 0
-101 -47 0
-102 -48 0
-103 -46 0
-104 -47 0
-105 -48 0
-124 -46 0
-125 -47 0
-126 -48 0
-142 -46 0
-143 -47 0
-144 -48 0
-70 -49 0
-71 -50 0
-72 -51 0
-79 -49 0
-80 -50 0
-81 -51 0
-97 -49 0
-98 -50 0
-99 -51 0
-118 -49 0
-119 -50 0
-120 -51 0
-124 -52 0
-125 -53 0
-126 -54 0
-127 -52 0
-128 -53 0
-129 -54 0
-130 -52 0
-131 -53 0
-132 -54 0
-136 -52 0
-137 -53 0
-138 -54 0
-115 -55 0
-116 -56 0
-117 -57 0
-127 -55 0
-128 -56 0
-129 -57 0
-139 -55 0
-140 -56 0
-141 -57 0
-109 -58 0
-110 -59 0
-111 -60 0
-130 -58 0
-131 -59 0
-132 -60 0
-142 -58 0
-143 -59 0
-144 -60 0
-148 -58 0
-149 -59 0
-150 -60 0
-106 -61 0
-107 -62 0
-108 -63 0
-139 -64 0
-140 -65 0
-141 -66 0
-106 -67 0
-107 -68 0
-108 -69 0
-115 -67 0
-116 -68 0
-117 -69 0
-124 -67 0
-125 -68 0
-126 -69 0
-127 -67 0
-128 -68 0
-129 -69 0
-130 -70 0
-131 -71 0
-132 -72 0
-109 -73 0
-110 -74 0
-111 -75 0
-112 -73 0
-113 -74 0
-114 -75 0
-130 -73 0
-131 -74 0
-132 -75 0
-112 -76 0
-113 -77 0
-114 -78 0
-121 -76 0
-122 -77 0
-123 -78 0
-145 -76 0
-146 -77 0
-147 -78 0
-103 -79 0
-104 -80 0
-105 -81 0
-109 -82 0
-110 -83 0
-111 -84 0
-148 -82 0
-149 -83 0
-150 -84 0
-115 -85 0
-116 -86 0
-117 -87 0
-109 -88 0
-110 -89 0
-111 -90 0
-139 -88 0
-140 -89 0
-141 -90 0
-106 -91 0
-107 -92 0
-108 -93 0
-115 -91 0
-116 -92 0
-117 -93 0
-124 -91 0
-125 -92 0
-126 -93 0
-145 -94 0
-146 -95 0
-147 -96 0
-148 -94 0
-149 -95 0
-150 -96 0
-106 -97 0
-107 -98 0
-108 -99 0
-121 -100 0
-122 -101 0
-123 -102 0
-133 -100 0
-134 -101 0
-135 -102 0
